(set-info :smt-lib-version 2.6)
(set-logic QF_NIA)
(set-info :source |
Generated by: Cristina Borralleras, Daniel Larraz, Albert Oliveras, Enric Rodriguez-Carbonell, Albert Rubio
Generated on: 2017-04-27
Generator: VeryMax
Application: Termination proving
Target solver: barcelogic
|)
(set-info :license "https://creativecommons.org/licenses/by/4.0/")
(set-info :category "industrial")
(set-info :status unsat)
(declare-fun Nl5main_x1 () Int)
(declare-fun Nl5main_y1 () Int)
(declare-fun Nl10main_x1 () Int)
(declare-fun Nl10main_y1 () Int)
(declare-fun lam0n0 () Int)
(declare-fun lam0n1 () Int)
(declare-fun Nl5CT1 () Int)
(declare-fun lam1n0 () Int)
(declare-fun lam1n1 () Int)
(declare-fun lam2n1 () Int)
(declare-fun lam2n0 () Int)
(declare-fun lam3n1 () Int)
(declare-fun Nl10CT1 () Int)
(declare-fun lam3n0 () Int)
(declare-fun lam4n0 () Int)
(declare-fun lam4n2 () Int)
(declare-fun lam4n1 () Int)
(declare-fun lam5n0 () Int)
(declare-fun lam5n2 () Int)
(declare-fun lam5n1 () Int)
(declare-fun lam6n0 () Int)
(declare-fun lam6n1 () Int)
(declare-fun lam7n0 () Int)
(declare-fun lam7n1 () Int)
(declare-fun lam8n0 () Int)
(declare-fun lam8n1 () Int)
(declare-fun lam8n2 () Int)
(declare-fun lam9n0 () Int)
(declare-fun lam9n1 () Int)
(declare-fun lam9n2 () Int)
(declare-fun lam12n0 () Int)
(declare-fun lam12n1 () Int)
(declare-fun RFN1_CT () Int)
(declare-fun RFN1_main_y () Int)
(declare-fun RFN1_main_x () Int)
(declare-fun lam15n0 () Int)
(declare-fun lam15n2 () Int)
(declare-fun lam15n1 () Int)
(declare-fun lam18n0 () Int)
(declare-fun lam18n1 () Int)
(declare-fun lam21n0 () Int)
(declare-fun lam21n1 () Int)
(declare-fun lam21n2 () Int)
(declare-fun lam19n0 () Int)
(declare-fun lam19n1 () Int)
(declare-fun lam19n2 () Int)
(declare-fun lam20n0 () Int)
(declare-fun lam20n1 () Int)
(declare-fun lam20n2 () Int)
(declare-fun lam22n0 () Int)
(declare-fun lam22n1 () Int)
(declare-fun lam22n2 () Int)
(assert ( and ( <= ( - 3 ) Nl5main_x1 ) ( <= Nl5main_x1 3 ) ( <= ( - 3 ) Nl5main_y1 ) ( <= Nl5main_y1 3 ) ( <= ( - 3 ) Nl10main_x1 ) ( <= Nl10main_x1 3 ) ( <= ( - 3 ) Nl10main_y1 ) ( <= Nl10main_y1 3 ) ))
(assert ( or ( and ( >= lam0n0 0 ) ( >= lam0n1 0 ) ( > ( + ( * 2 lam0n0 ) ( * Nl5CT1 lam0n1 ) ( - 1 ) ) 0 ) ( = ( * Nl5main_x1 lam0n1 ) 0 ) ( = ( + ( * ( - 1 ) lam0n0 ) ( * Nl5main_y1 lam0n1 ) ) 0 ) ) ( and ( >= lam1n0 0 ) ( >= lam1n1 0 ) ( > ( + ( * 2 lam1n0 ) ( * Nl5CT1 lam1n1 ) ( - 1 ( + Nl5CT1 ( * Nl5main_y1 ( - 2 ) ) ) ) ) 0 ) ( = ( + ( * Nl5main_x1 lam1n1 ) ( - ( + 0 Nl5main_x1 ) ) ) 0 ) ( = ( + ( * ( - 1 ) lam1n0 ) ( * Nl5main_y1 lam1n1 ) ( - ( + 0 ( * Nl5main_y1 1 ) ) ) ) 0 ) ) ))
(assert ( or ( and ( >= lam2n1 0 ) ( > ( + ( * Nl5CT1 lam2n1 ) ( - 1 ) ) 0 ) ( = ( * Nl5main_x1 lam2n1 ) 0 ) ( = ( + ( * 1 lam2n0 ) ( * Nl5main_y1 lam2n1 ) ) 0 ) ) ( and ( >= lam3n1 0 ) ( > ( + ( * Nl5CT1 lam3n1 ) ( - 1 Nl10CT1 ) ) 0 ) ( = ( + ( * Nl5main_x1 lam3n1 ) ( - ( + 0 Nl10main_x1 ) ) ) 0 ) ( = ( + ( * 1 lam3n0 ) ( * Nl5main_y1 lam3n1 ) ( - ( + 0 Nl10main_y1 ) ) ) 0 ) ) ))
(assert ( or ( and ( >= lam4n0 0 ) ( >= lam4n2 0 ) ( > ( + ( * 1 lam4n0 ) ( * ( - 1 ) lam4n1 ) ( * Nl5CT1 lam4n2 ) ( - 1 ) ) 0 ) ( = ( + ( * ( - 1 ) lam4n0 ) ( * Nl5main_x1 lam4n2 ) ) 0 ) ( = ( + ( * 1 lam4n1 ) ( * Nl5main_y1 lam4n2 ) ) 0 ) ) ( and ( >= lam5n0 0 ) ( >= lam5n2 0 ) ( > ( + ( * 1 lam5n0 ) ( * ( - 1 ) lam5n1 ) ( * Nl5CT1 lam5n2 ) ( - 1 ( + ( + Nl5CT1 ( * Nl5main_x1 1 ) ) ( * Nl5main_y1 1 ) ) ) ) 0 ) ( = ( + ( * ( - 1 ) lam5n0 ) ( * Nl5main_x1 lam5n2 ) ( - ( + ( + 0 ( * Nl5main_x1 3 ) ) ( * Nl5main_y1 3 ) ) ) ) 0 ) ( = ( + ( * 1 lam5n1 ) ( * Nl5main_y1 lam5n2 ) ) 0 ) ) ))
(assert ( or ( and ( >= lam6n0 0 ) ( >= lam6n1 0 ) ( > ( + ( * 1 lam6n0 ) ( * Nl10CT1 lam6n1 ) ( - 1 ) ) 0 ) ( = ( + ( * ( - 1 ) lam6n0 ) ( * Nl10main_x1 lam6n1 ) ) 0 ) ( = ( + ( * 2 lam6n0 ) ( * Nl10main_y1 lam6n1 ) ) 0 ) ) ( and ( >= lam7n0 0 ) ( >= lam7n1 0 ) ( > ( + ( * 1 lam7n0 ) ( * Nl10CT1 lam7n1 ) ( - 1 ( + Nl10CT1 ( * Nl10main_y1 1 ) ) ) ) 0 ) ( = ( + ( * ( - 1 ) lam7n0 ) ( * Nl10main_x1 lam7n1 ) ( - ( + 0 Nl10main_x1 ) ) ) 0 ) ( = ( + ( * 2 lam7n0 ) ( * Nl10main_y1 lam7n1 ) ( - ( + 0 ( * Nl10main_y1 1 ) ) ) ) 0 ) ) ))
(assert ( or ( and ( >= lam8n0 0 ) ( >= lam8n1 0 ) ( >= lam8n2 0 ) ( > ( + ( * 2 lam8n1 ) ( * Nl10CT1 lam8n2 ) ( - 1 ) ) 0 ) ( = ( + ( * 1 lam8n0 ) ( * Nl10main_x1 lam8n2 ) ) 0 ) ( = ( + ( * ( - 2 ) lam8n0 ) ( * ( - 1 ) lam8n1 ) ( * Nl10main_y1 lam8n2 ) ) 0 ) ) ( and ( >= lam9n0 0 ) ( >= lam9n1 0 ) ( >= lam9n2 0 ) ( > ( + ( * 2 lam9n1 ) ( * Nl10CT1 lam9n2 ) ( - 1 ( + Nl5CT1 ( * Nl5main_x1 0 ) ) ) ) 0 ) ( = ( + ( * 1 lam9n0 ) ( * Nl10main_x1 lam9n2 ) ) 0 ) ( = ( + ( * ( - 2 ) lam9n0 ) ( * ( - 1 ) lam9n1 ) ( * Nl10main_y1 lam9n2 ) ( - ( + ( + 0 ( * Nl5main_x1 1 ) ) Nl5main_y1 ) ) ) 0 ) ) ))
(assert ( and ( or ( and ( >= lam0n0 0 ) ( >= lam0n1 0 ) ( > ( + ( * 2 lam0n0 ) ( * Nl5CT1 lam0n1 ) ( - 1 ) ) 0 ) ( = ( * Nl5main_x1 lam0n1 ) 0 ) ( = ( + ( * ( - 1 ) lam0n0 ) ( * Nl5main_y1 lam0n1 ) ) 0 ) ) ( and ( >= lam12n0 0 ) ( >= lam12n1 0 ) ( > ( + ( * 2 lam12n0 ) ( * Nl5CT1 lam12n1 ) ( - 1 ( - ( + RFN1_CT ( * RFN1_main_y ( - 2 ) ) ) RFN1_CT ) ) ) 0 ) ( = ( + ( * Nl5main_x1 lam12n1 ) ( - ( - ( + 0 RFN1_main_x ) RFN1_main_x ) ) ) 0 ) ( = ( + ( * ( - 1 ) lam12n0 ) ( * Nl5main_y1 lam12n1 ) ( - ( - ( + 0 ( * RFN1_main_y 1 ) ) RFN1_main_y ) ) ) 0 ) ) ) ( or ( and ( >= lam4n0 0 ) ( >= lam4n2 0 ) ( > ( + ( * 1 lam4n0 ) ( * ( - 1 ) lam4n1 ) ( * Nl5CT1 lam4n2 ) ( - 1 ) ) 0 ) ( = ( + ( * ( - 1 ) lam4n0 ) ( * Nl5main_x1 lam4n2 ) ) 0 ) ( = ( + ( * 1 lam4n1 ) ( * Nl5main_y1 lam4n2 ) ) 0 ) ) ( and ( >= lam15n0 0 ) ( >= lam15n2 0 ) ( > ( + ( * 1 lam15n0 ) ( * ( - 1 ) lam15n1 ) ( * Nl5CT1 lam15n2 ) ( - 1 ( - ( + ( + RFN1_CT ( * RFN1_main_x 1 ) ) ( * RFN1_main_y 1 ) ) RFN1_CT ) ) ) 0 ) ( = ( + ( * ( - 1 ) lam15n0 ) ( * Nl5main_x1 lam15n2 ) ( - ( - ( + ( + 0 ( * RFN1_main_x 3 ) ) ( * RFN1_main_y 3 ) ) RFN1_main_x ) ) ) 0 ) ( = ( + ( * 1 lam15n1 ) ( * Nl5main_y1 lam15n2 ) ( - ( - RFN1_main_y ) ) ) 0 ) ) ) ( or ( and ( >= lam6n0 0 ) ( >= lam6n1 0 ) ( > ( + ( * 1 lam6n0 ) ( * Nl10CT1 lam6n1 ) ( - 1 ) ) 0 ) ( = ( + ( * ( - 1 ) lam6n0 ) ( * Nl10main_x1 lam6n1 ) ) 0 ) ( = ( + ( * 2 lam6n0 ) ( * Nl10main_y1 lam6n1 ) ) 0 ) ) ( and ( >= lam18n0 0 ) ( >= lam18n1 0 ) ( > ( + ( * 1 lam18n0 ) ( * Nl10CT1 lam18n1 ) ( - 1 ( - ( + RFN1_CT ( * RFN1_main_y 1 ) ) RFN1_CT ) ) ) 0 ) ( = ( + ( * ( - 1 ) lam18n0 ) ( * Nl10main_x1 lam18n1 ) ( - ( - ( + 0 RFN1_main_x ) RFN1_main_x ) ) ) 0 ) ( = ( + ( * 2 lam18n0 ) ( * Nl10main_y1 lam18n1 ) ( - ( - ( + 0 ( * RFN1_main_y 1 ) ) RFN1_main_y ) ) ) 0 ) ) ) ( or ( and ( >= lam8n0 0 ) ( >= lam8n1 0 ) ( >= lam8n2 0 ) ( > ( + ( * 2 lam8n1 ) ( * Nl10CT1 lam8n2 ) ( - 1 ) ) 0 ) ( = ( + ( * 1 lam8n0 ) ( * Nl10main_x1 lam8n2 ) ) 0 ) ( = ( + ( * ( - 2 ) lam8n0 ) ( * ( - 1 ) lam8n1 ) ( * Nl10main_y1 lam8n2 ) ) 0 ) ) ( and ( >= lam21n0 0 ) ( >= lam21n1 0 ) ( >= lam21n2 0 ) ( > ( + ( * 2 lam21n1 ) ( * Nl10CT1 lam21n2 ) ( - 1 ( - ( + RFN1_CT ( * RFN1_main_x 0 ) ) RFN1_CT ) ) ) 0 ) ( = ( + ( * 1 lam21n0 ) ( * Nl10main_x1 lam21n2 ) ( - ( - RFN1_main_x ) ) ) 0 ) ( = ( + ( * ( - 2 ) lam21n0 ) ( * ( - 1 ) lam21n1 ) ( * Nl10main_y1 lam21n2 ) ( - ( - ( + ( + 0 ( * RFN1_main_x 1 ) ) RFN1_main_y ) RFN1_main_y ) ) ) 0 ) ) ) ))
(assert ( and ( and ( and ( >= lam19n0 0 ) ( >= lam19n1 0 ) ( >= lam19n2 0 ) ( > ( + ( * 2 lam19n1 ) ( * Nl10CT1 lam19n2 ) ( - 1 ( - RFN1_CT ) ) ) 0 ) ( = ( + ( * 1 lam19n0 ) ( * Nl10main_x1 lam19n2 ) ( - ( - RFN1_main_x ) ) ) 0 ) ( = ( + ( * ( - 2 ) lam19n0 ) ( * ( - 1 ) lam19n1 ) ( * Nl10main_y1 lam19n2 ) ( - ( - RFN1_main_y ) ) ) 0 ) ) ( and ( >= lam20n0 0 ) ( >= lam20n1 0 ) ( >= lam20n2 0 ) ( > ( + ( * 2 lam20n1 ) ( * Nl10CT1 lam20n2 ) ( - 1 ( + ( - ( + RFN1_CT ( * RFN1_main_x 0 ) ) RFN1_CT ) 1 ) ) ) 0 ) ( = ( + ( * 1 lam20n0 ) ( * Nl10main_x1 lam20n2 ) ( - ( - RFN1_main_x ) ) ) 0 ) ( = ( + ( * ( - 2 ) lam20n0 ) ( * ( - 1 ) lam20n1 ) ( * Nl10main_y1 lam20n2 ) ( - ( - ( + ( + 0 ( * RFN1_main_x 1 ) ) RFN1_main_y ) RFN1_main_y ) ) ) 0 ) ) ) ( and ( >= lam22n0 0 ) ( >= lam22n1 0 ) ( >= lam22n2 0 ) ( > ( + ( * 2 lam22n1 ) ( * ( + ( - Nl10CT1 ) 1 ) lam22n2 ) ( - 1 ) ) 0 ) ( = ( + ( * 1 lam22n0 ) ( * ( - Nl10main_x1 ) lam22n2 ) ) 0 ) ( = ( + ( * ( - 2 ) lam22n0 ) ( * ( - 1 ) lam22n1 ) ( * ( - Nl10main_y1 ) lam22n2 ) ) 0 ) ) ))
(check-sat)
(exit)
